0 125
1 125
2 126
3 128
4 129
5 126
6 132
7 136
8 138
9 139
10 139
11 139
12 139
13 141
14 133
15 138
16 138
17 138
18 142
19 138
20 155
21 139
22 141
23 139
24 139
25 139
26 139
27 139
28 139
29 140
30 135
31 136
32 155
33 138
34 137
35 138
36 138
37 138
38 138
39 138
40 138
41 139
42 139
43 139
44 139
45 156
46 139
47 140
48 139
49 139
50 139
51 139
52 141
53 139
54 156
55 140
56 140
57 139
58 139
59 140
60 129
61 126
62 126
63 128
64 146
65 130
66 130
67 132
68 132
69 139
70 133
71 135
72 137
73 137
74 136
75 136
76 137
77 137
78 139
79 139
80 138
81 138
82 138
83 142
84 137
85 138
86 138
87 138
88 138
89 138
90 138
91 140
92 139
93 138
94 138
95 144
96 138
97 139
98 139
99 139
100 139
101 139
102 139
103 139
104 139
105 144
106 156
107 156
108 142
109 139
110 150
111 139
112 139
113 139
114 140
115 147
116 139
117 139
118 139
119 139
120 140
121 139
122 146
123 139
124 139
125 140
126 139
127 139
128 144
129 127
130 126
131 128
132 126
133 126
134 126
135 127
136 127
137 128
138 139
139 146
140 137
141 129
142 128
143 130
144 129
145 131
146 130
147 130
148 136
149 131
150 134
151 133
152 135
153 131
154 151
155 134
156 137
157 136
158 135
159 136
160 137
161 135
162 137
163 136
164 136
165 136
166 137
167 136
168 137
169 136
170 137
171 137
172 137
173 137
174 138
175 138
176 138
177 137
178 138
179 138
180 138
181 138
182 138
183 138
184 138
185 138
186 138
187 140
188 138
189 139
190 138
191 138
192 138
193 138
194 145
195 138
196 143
197 138
198 139
199 139
200 138
201 138
202 144
203 139
204 138
205 138
206 138
207 141
208 139
209 138
210 139
211 138
212 139
213 139
214 151
215 138
216 139
217 139
218 139
219 140
220 139
221 139
222 139
223 139
224 139
225 139
